NAME : LPS-n14-m49
COMMENT : (Lartu-Peter-Santi Plot, instance 4449 out of 39200. 14 customers.)
TYPE : CVRP
DIMENSION : 14
EDGE_WEIGHT_TYPE : EUC_2D
CAPACITY : 142
NODE_COORD_SECTION
 1 35 95
 2 8 14
 3 87 78
 4 51 18
 5 27 1
 6 51 7
 7 98 4
 8 83 87
 9 78 14
 10 89 98
 11 19 5
 12 75 13
 13 72 62
 14 45 1
DEMAND_SECTION
1 0
2 92
3 67
4 94
5 54
6 128
7 31
8 18
9 72
10 136
11 63
12 41
13 114
14 103
DEPOT_SECTION
 1
 -1
EOF
